webassembly/ejemplos_dzn/folder9_json_23.dzn
TERM = { '.', 's(2)', 's(5)', 's(4)', 'in_1', 'local_0', 'local_1', 'in_2', 'in_3', 's(1)', 's(0)', 's(3)', 'in_0'};
null = '.';
s = 9;
n = 9;
ndeps = 5;
max_registers_sz = 5;
NR = 2;
registers = [|'local_0', 's(5)', |'local_1', 's(5)'|];
dependencies = [|'i32.store_0', 'call[function_index(0)]_2', |'call[function_index(0)]_2', 'i32.load8_s_3', |'call[function_index(0)]_2', 'i32.load16_u_7', |'i32.load8_s_3', 'i32.store16_8', |'i32.load16_u_7', 'i32.store16_8'|];
GET_ENUM = { GET1, GET2, GET3, GET4, GET5, GET6, GET7};
SET_ENUM = { SET1, SET2, SET3, SET4, SET5, SET6, SET7};
TEE_ENUM = { TEE1, TEE2, TEE3, TEE4, TEE5, TEE6, TEE7};
N = 6;
OP = { 'call[function_index(0)]_2', 'i32.store_0', 'i32.load8_s_3', 'i32.const_0', 'i32.load16_u_7', 'i32.store16_8' };
in_ops = [2, 2, 1, 0, 1, 2 ];
out_ops = [3, 0, 1, 1, 1, 0 ];
in1 = ['in_2', 'in_0', 's(2)', '.', 's(5)', 's(4)' ];
in2 = ['in_3', 'in_1', '.', '.', '.', 's(3)' ];
in3 = ['.', '.', '.', '.', '.', '.' ];
out1 = ['s(2)', '.', 's(3)', 's(5)', 's(4)', '.' ];
out2 = ['s(1)', '.', '.', '.', '.', '.' ];
out3 = ['s(0)', '.', '.', '.', '.', '.' ];
comm = [false, false, false, false, false, false ];
gas = [1, 1, 1, 1, 1, 1 ];
sz = [1, 1, 1, 1, 1, 1 ];
stor = [true, true, false, false, false, true ];
lb = [ 1, 1, 1, 1, 1, 1 ];
ub = [ 9, 9, 9, 9, 9, 9 ];
startstack = [ 'in_0', 'in_1', 'in_2', 'in_3', null, null, null, null, null ];
endstack = [ 's(1)', 's(0)', null, null, null, null, null, null, null ];
